NAME: random-12-29762
TYPE: TSP
COMMENT: size=12 seed=29762
DIMENSION: 26
EDGE_WEIGHT_TYPE: EUC_2D
NODE_COORD_SECTION
+0 934 380
-0 934 380
+1 828 412
-1 728 48
+2 927 12
-2 69 404
+3 947 888
-3 717 978
+4 996 335
-4 163 461
+5 911 745
-5 995 557
+6 319 692
-6 599 569
+7 932 674
-7 390 864
+8 427 890
-8 391 450
+9 282 274
-9 933 771
+10 110 490
-10 437 645
+11 240 229
-11 430 832
+12 776 798
-12 398 540
PRECEDENCE_SECTION
+0 -0
+1 -1
+2 -2
+3 -3
+4 -4
+5 -5
+6 -6
+7 -7
+8 -8
+9 -9
+10 -10
+11 -11
+12 -12
EOF
